15
1 0 3
3 0 3
4 1 3
4 2 1
5 1 4
5 4 3
6 1 6
6 2 6
6 3 6
6 5 1
7 2 5
7 3 6
7 4 6
7 6 9
8 0 9
8 1 4
8 2 6
8 4 8
8 6 8
9 1 4
9 2 6
9 3 3
9 4 1
9 6 6
9 8 8
10 3 4
10 4 4
10 5 4
10 6 7
10 8 6
10 9 5
11 0 8
11 5 1
11 6 9
11 7 3
11 10 5
12 3 7
12 5 9
12 7 9
13 0 2
13 1 3
13 3 6
13 4 5
13 6 3
13 7 4
13 8 8
13 10 4
14 0 1
14 1 5
14 2 7
14 3 7
14 4 5
14 6 3
14 7 4
14 8 1
14 10 2
14 11 9
14 13 8
